words_hard_train/5959.qaiger
aag 114 16 0 1 98
2
4
8
18
26
36
44
60
68
84
92
106
114
130
138
188
228
6 2 4
10 6 8
12 8 4
14 13 3
16 11 15
20 17 19
22 16 18
24 21 23
28 26 8
30 24 28
32 31 23
34 7 13
38 35 37
40 34 36
42 39 41
46 42 45
48 43 44
50 47 49
52 33 50
54 53 49
56 36 4
58 57 34
62 58 60
64 59 61
66 63 65
70 66 69
72 67 68
74 71 73
76 55 74
78 77 73
80 60 4
82 81 58
86 83 84
88 82 85
90 87 89
94 91 93
96 90 92
98 95 97
100 79 98
102 101 97
104 89 4
108 105 106
110 104 107
112 109 111
116 112 115
118 113 114
120 117 119
122 103 120
124 123 119
126 88 107
128 127 4
132 129 131
134 128 130
136 133 135
140 137 139
142 136 138
144 141 143
146 124 145
148 125 144
150 147 149
152 54 75
154 153 77
156 27 9
158 24 29
160 157 158
162 32 51
164 163 53
166 160 164
168 154 166
170 78 99
172 171 101
174 168 172
176 150 174
178 102 121
180 179 123
182 176 180
184 126 4
186 184 131
190 186 189
192 187 188
194 191 193
196 149 143
198 194 197
200 195 196
202 199 201
204 183 203
206 155 167
208 206 173
210 209 175
212 156 25
214 213 31
216 215 165
218 211 216
220 205 218
222 151 175
224 181 222
226 225 202
228 220 227
i0 2 y1[1]
i1 2 y1[7]
i2 2 y1[0]
i3 1 x2[1]
i4 1 x2[0]
i5 2 y1[2]
i6 1 x2[2]
i7 2 y1[3]
i8 1 x2[3]
i9 2 y1[4]
i10 1 x2[4]
i11 2 y1[5]
i12 1 x2[5]
i13 2 y1[6]
i14 1 x2[6]
i15 1 x2[7]
o0 bool[0]
c
simplified
  ==
    1
    add
      add
        abs
          2 y1
        1 x2
      1
