words_hard_train/5959.qaiger.qdimacs
p cnf 114 295
a 34 69 9 13 46 22 57 94 0
e 1 2 3 4 5 6 7 8 10 11 12 14 15 16 17 18 19 20 21 23 24 25 26 27 28 29 30 31 32 33 35 36 37 38 39 40 41 42 43 44 45 47 48 49 50 51 52 53 54 55 56 58 59 60 61 62 63 64 65 66 67 68 70 71 72 73 74 75 76 77 78 79 80 81 82 83 84 85 86 87 88 89 90 91 92 93 95 96 97 98 99 100 101 102 103 104 105 106 107 108 109 110 111 112 113 114 0
-1 -2 3 0
1 -3 0
2 -3 0
-3 -4 5 0
3 -5 0
4 -5 0
-4 -2 6 0
4 -6 0
2 -6 0
6 1 7 0
-6 -7 0
-1 -7 0
5 7 8 0
-5 -8 0
-7 -8 0
8 9 10 0
-8 -10 0
-9 -10 0
-8 -9 11 0
8 -11 0
9 -11 0
10 11 12 0
-10 -12 0
-11 -12 0
-13 -4 14 0
13 -14 0
4 -14 0
-12 -14 15 0
12 -15 0
14 -15 0
15 11 16 0
-15 -16 0
-11 -16 0
3 6 17 0
-3 -17 0
-6 -17 0
17 18 19 0
-17 -19 0
-18 -19 0
-17 -18 20 0
17 -20 0
18 -20 0
19 20 21 0
-19 -21 0
-20 -21 0
-21 22 23 0
21 -23 0
-22 -23 0
21 -22 24 0
-21 -24 0
22 -24 0
23 24 25 0
-23 -25 0
-24 -25 0
16 -25 26 0
-16 -26 0
25 -26 0
26 24 27 0
-26 -27 0
-24 -27 0
-18 -2 28 0
18 -28 0
2 -28 0
28 -17 29 0
-28 -29 0
17 -29 0
-29 -30 31 0
29 -31 0
30 -31 0
29 30 32 0
-29 -32 0
-30 -32 0
31 32 33 0
-31 -33 0
-32 -33 0
-33 34 35 0
33 -35 0
-34 -35 0
33 -34 36 0
-33 -36 0
34 -36 0
35 36 37 0
-35 -37 0
-36 -37 0
27 -37 38 0
-27 -38 0
37 -38 0
38 36 39 0
-38 -39 0
-36 -39 0
-30 -2 40 0
30 -40 0
2 -40 0
40 -29 41 0
-40 -41 0
29 -41 0
41 -42 43 0
-41 -43 0
42 -43 0
-41 42 44 0
41 -44 0
-42 -44 0
43 44 45 0
-43 -45 0
-44 -45 0
45 46 47 0
-45 -47 0
-46 -47 0
-45 -46 48 0
45 -48 0
46 -48 0
47 48 49 0
-47 -49 0
-48 -49 0
39 -49 50 0
-39 -50 0
49 -50 0
50 48 51 0
-50 -51 0
-48 -51 0
44 -2 52 0
-44 -52 0
2 -52 0
52 -53 54 0
-52 -54 0
53 -54 0
-52 53 55 0
52 -55 0
-53 -55 0
54 55 56 0
-54 -56 0
-55 -56 0
-56 57 58 0
56 -58 0
-57 -58 0
56 -57 59 0
-56 -59 0
57 -59 0
58 59 60 0
-58 -60 0
-59 -60 0
51 -60 61 0
-51 -61 0
60 -61 0
61 59 62 0
-61 -62 0
-59 -62 0
-44 53 63 0
44 -63 0
-53 -63 0
63 -2 64 0
-63 -64 0
2 -64 0
64 65 66 0
-64 -66 0
-65 -66 0
-64 -65 67 0
64 -67 0
65 -67 0
66 67 68 0
-66 -68 0
-67 -68 0
68 69 70 0
-68 -70 0
-69 -70 0
-68 -69 71 0
68 -71 0
69 -71 0
70 71 72 0
-70 -72 0
-71 -72 0
-62 72 73 0
62 -73 0
-72 -73 0
62 -72 74 0
-62 -74 0
72 -74 0
73 74 75 0
-73 -75 0
-74 -75 0
-27 37 76 0
27 -76 0
-37 -76 0
76 38 77 0
-76 -77 0
-38 -77 0
13 4 78 0
-13 -78 0
-4 -78 0
-12 14 79 0
12 -79 0
-14 -79 0
78 -79 80 0
-78 -80 0
79 -80 0
-16 25 81 0
16 -81 0
-25 -81 0
81 26 82 0
-81 -82 0
-26 -82 0
-80 -82 83 0
80 -83 0
82 -83 0
-77 -83 84 0
77 -84 0
83 -84 0
-39 49 85 0
39 -85 0
-49 -85 0
85 50 86 0
-85 -86 0
-50 -86 0
-84 -86 87 0
84 -87 0
86 -87 0
-75 -87 88 0
75 -88 0
87 -88 0
-51 60 89 0
51 -89 0
-60 -89 0
89 61 90 0
-89 -90 0
-61 -90 0
-88 -90 91 0
88 -91 0
90 -91 0
-63 -2 92 0
63 -92 0
2 -92 0
-92 65 93 0
92 -93 0
-65 -93 0
-93 94 95 0
93 -95 0
-94 -95 0
93 -94 96 0
-93 -96 0
94 -96 0
95 96 97 0
-95 -97 0
-96 -97 0
74 71 98 0
-74 -98 0
-71 -98 0
-97 98 99 0
97 -99 0
-98 -99 0
97 -98 100 0
-97 -100 0
98 -100 0
99 100 101 0
-99 -101 0
-100 -101 0
91 101 102 0
-91 -102 0
-101 -102 0
77 83 103 0
-77 -103 0
-83 -103 0
-103 86 104 0
103 -104 0
-86 -104 0
104 87 105 0
-104 -105 0
-87 -105 0
-78 12 106 0
78 -106 0
-12 -106 0
106 15 107 0
-106 -107 0
-15 -107 0
107 82 108 0
-107 -108 0
-82 -108 0
105 -108 109 0
-105 -109 0
108 -109 0
102 -109 110 0
-102 -110 0
109 -110 0
75 87 111 0
-75 -111 0
-87 -111 0
90 -111 112 0
-90 -112 0
111 -112 0
112 -101 113 0
-112 -113 0
101 -113 0
-110 113 114 0
110 -114 0
-113 -114 0
114 0
